NAME: instance_3158
TYPE: TSP
DIMENSION: 20
EDGE_WEIGHT_TYPE: EUC_2D
NODE_COORD_SECTION
0 32.57 69.16
1 10.51 55.32
2 49.71 1.72
3 14.11 29.57
4 34.73 90.07
5 1.64 30.33
6 97.37 20.09
7 27.65 89.96
8 87.12 42.88
9 47.84 87.30
10 54.39 52.24
11 25.51 92.24
12 45.00 99.98
13 99.30 70.66
14 70.32 68.29
15 70.83 14.16
16 16.29 43.55
17 35.79 25.88
18 22.06 36.15
19 77.83 62.28
EOF
